/*********************************************
 * OPL 12.8.0.0 Data
 * Author: HP
 * Creation Date: Mar 30, 2022 at 12:04:38 AM
 *********************************************/
t=3;
i=2;
D=[[10,15],[15,10],[10,15]];
//C=[[5,5],[5,5],[5,5]];
